
Gurobi 11.0.0 (win64) logging started Fri Apr 26 12:39:57 2024

Set parameter LogFile to value "./Results/StripPacking_CutsTest_SBM/Logs/SBM-StripPacking-18.log"
Set parameter TimeLimit to value 3600
Set parameter Cuts to value 1
Set parameter Presolve to value 1
Set parameter Heuristics to value 1
Gurobi Optimizer version 11.0.0 build v11.0.0rc2 (win64 - Windows 10.0 (19045.2))

CPU model: Intel(R) Core(TM) i9-10980XE CPU @ 3.00GHz, instruction set [SSE2|AVX|AVX2|AVX512]
Thread count: 18 physical cores, 36 logical processors, using up to 18 threads

Optimize a model with 2772 rows, 496 columns and 8298 nonzeros
Model fingerprint: 0x1e4e3848
Variable types: 190 continuous, 306 integer (306 binary)
Coefficient statistics:
  Matrix range     [1e+00, 3e+02]
  Objective range  [1e+00, 1e+00]
  Bounds range     [1e+00, 3e+02]
  RHS range        [1e+00, 3e+02]
Presolve removed 478 rows and 2 columns
Presolve time: 0.02s
Presolved: 2294 rows, 494 columns, 7252 nonzeros
Variable types: 187 continuous, 307 integer (307 binary)

Root relaxation: objective 2.000000e+02, 275 iterations, 0.02 seconds (0.01 work units)

    Nodes    |    Current Node    |     Objective Bounds      |     Work
 Expl Unexpl |  Obj  Depth IntInf | Incumbent    BestBd   Gap | It/Node Time

     0     0  200.00000    0   21          -  200.00000      -     -    0s
     0     0  200.00000    0   39          -  200.00000      -     -    0s
     0     0  200.00000    0   39          -  200.00000      -     -    0s
     0     0  200.00000    0   22          -  200.00000      -     -    0s
     0     0  200.00000    0   22          -  200.00000      -     -    0s
H    0     0                     280.0000000  200.00000  28.6%     -    0s
     0     0  200.00000    0   24  280.00000  200.00000  28.6%     -    0s
     0     0  200.00000    0   32  280.00000  200.00000  28.6%     -    0s
     0     0  200.00000    0   16  280.00000  200.00000  28.6%     -    0s
     0     0  200.00000    0   16  280.00000  200.00000  28.6%     -    0s
     0     0  200.00000    0   19  280.00000  200.00000  28.6%     -    0s
     0     0  200.00000    0   31  280.00000  200.00000  28.6%     -    0s
     0     0  200.00000    0   12  280.00000  200.00000  28.6%     -    0s
     0     0  200.00000    0   28  280.00000  200.00000  28.6%     -    0s
     0     0  200.00000    0   19  280.00000  200.00000  28.6%     -    0s
     0     0  200.00000    0   14  280.00000  200.00000  28.6%     -    0s
     0     2  200.00000    0   13  280.00000  200.00000  28.6%     -    0s
H    3     8                     258.0000000  200.00000  22.5%  24.0    0s
H  173   171                     257.0000000  200.00000  22.2%  32.6    0s
H 2508  1307                     257.0000000  200.00000  22.2%  25.2    4s
  2532  1424 infeasible   24       257.00000  200.00000  22.2%  25.2    6s
H 2803  1385                     254.0000000  200.00000  21.3%  25.3    6s
H 4155  1978                     254.0000000  200.00000  21.3%  25.1    8s
  5086  2047  212.00000   18   37  254.00000  205.63249  19.0%  28.4   10s
H 5289  2011                     252.0000000  205.63249  18.4%  28.3   11s
H 5370  1910                     250.0000000  205.63249  17.7%  28.1   12s
H 5374  1818                     247.0000000  205.63249  16.7%  28.1   12s
H 5388  1728                     245.0000000  205.63249  16.1%  28.1   12s
H 5479  1585                     244.0000000  212.00000  13.1%  28.0   13s
H 5524  1483                     244.0000000  212.00000  13.1%  28.0   13s
H 5539  1404                     239.0000000  212.00000  11.3%  28.0   13s
H 5574  1286                     238.0000000  212.00000  10.9%  27.9   14s
  5618  1160  226.00000   18   26  238.00000  212.00000  10.9%  27.9   15s

Cutting planes:
  Learned: 9
  Gomory: 3
  Cover: 60
  Implied bound: 1
  Clique: 1
  MIR: 72
  Flow cover: 161
  Zero half: 1
  RLT: 20
  Relax-and-lift: 3

Explored 5798 nodes (163574 simplex iterations) in 15.57 seconds (15.14 work units)
Thread count was 18 (of 36 available processors)

Solution count 10: 238 239 244 ... 254

Optimal solution found (tolerance 1.00e-04)
Best objective 2.380000000000e+02, best bound 2.380000000000e+02, gap 0.0000%

Gurobi 11.0.0 (win64) logging started Fri Apr 26 12:40:12 2024

Set parameter LogFile to value "./Results/StripPacking_CutsTest_SBM/Logs/SBM-StripPacking-18.log"
Set parameter TimeLimit to value 3600
Set parameter Cuts to value 1
Set parameter Presolve to value 0
Set parameter Heuristics to value 0
Gurobi Optimizer version 11.0.0 build v11.0.0rc2 (win64 - Windows 10.0 (19045.2))

CPU model: Intel(R) Core(TM) i9-10980XE CPU @ 3.00GHz, instruction set [SSE2|AVX|AVX2|AVX512]
Thread count: 18 physical cores, 36 logical processors, using up to 18 threads

Optimize a model with 2772 rows, 496 columns and 8298 nonzeros
Model fingerprint: 0x1e4e3848
Variable types: 190 continuous, 306 integer (306 binary)
Coefficient statistics:
  Matrix range     [1e+00, 3e+02]
  Objective range  [1e+00, 1e+00]
  Bounds range     [1e+00, 3e+02]
  RHS range        [1e+00, 3e+02]
Variable types: 190 continuous, 306 integer (306 binary)

Root relaxation: objective 1.530000e+02, 303 iterations, 0.02 seconds (0.01 work units)

    Nodes    |    Current Node    |     Objective Bounds      |     Work
 Expl Unexpl |  Obj  Depth IntInf | Incumbent    BestBd   Gap | It/Node Time

     0     0  153.00000    0   23          -  153.00000      -     -    0s
     0     0  200.00000    0   20          -  200.00000      -     -    0s
     0     0  200.00000    0   40          -  200.00000      -     -    0s
     0     0  200.00000    0   38          -  200.00000      -     -    0s
     0     0  200.00000    0   20          -  200.00000      -     -    0s
     0     0  200.00000    0   23          -  200.00000      -     -    0s
     0     0  200.00000    0   20          -  200.00000      -     -    0s
     0     0  200.00000    0   21          -  200.00000      -     -    0s
     0     0  200.00000    0   16          -  200.00000      -     -    0s
     0     0  200.00000    0   26          -  200.00000      -     -    0s
     0     0  200.00000    0   22          -  200.00000      -     -    0s
     0     0  200.00000    0   22          -  200.00000      -     -    0s
     0     0  200.00000    0   18          -  200.00000      -     -    0s
     0     0  200.00000    0   26          -  200.00000      -     -    0s
     0     0  200.00000    0   19          -  200.00000      -     -    0s
     0     0  200.00000    0   19          -  200.00000      -     -    0s
     0     2  200.00000    0   14          -  200.00000      -     -    0s
* 1848  1236              88     270.0000000  200.00000  25.9%  15.4    1s
* 3557  1483              36     269.0000000  200.00000  25.7%  22.3    2s
* 4023  1620              48     266.0000000  200.00000  24.8%  21.9    2s
* 4552  1741              59     265.0000000  200.00000  24.5%  21.4    3s
* 4685  1633              58     264.0000000  200.00000  24.2%  21.4    3s
* 5081  1488              53     262.0000000  200.00000  23.7%  21.7    3s
* 5213  1372              79     257.0000000  200.00000  22.2%  21.7    3s
* 6080  1034              54     256.0000000  203.82818  20.4%  22.1    3s
* 6089  1034              56     254.0000000  206.74916  18.6%  22.1    3s
* 6357  1032              80     253.0000000  210.00000  17.0%  22.0    3s
* 6501  1024              78     252.0000000  210.00000  16.7%  22.1    3s
* 6943  1077              53     251.0000000  210.00000  16.3%  21.9    3s
* 6944  1077              53     250.0000000  210.00000  16.0%  21.9    3s
* 8184  1053              57     249.0000000  212.00000  14.9%  21.6    4s
* 8725  1055              59     248.0000000  212.00000  14.5%  21.7    4s
* 9207  1050              77     247.0000000  214.00000  13.4%  21.7    4s
* 9948  1079              65     244.0000000  214.00000  12.3%  21.8    4s
 10260   991  239.00000   38   23  244.00000  217.64835  10.8%  21.7    5s
*10986  1039              55     242.0000000  238.00000  1.65%  21.4    5s
*11253  1071              61     241.0000000  238.00000  1.24%  21.5    5s
*13124  1022              60     240.0000000  238.00000  0.83%  21.0    5s
*13990  1043              61     239.0000000  238.00000  0.42%  21.0    6s
*16044   963              58     238.0000000  238.00000  0.00%  20.4    7s

Cutting planes:
  Learned: 6
  Gomory: 5
  Lift-and-project: 3
  Cover: 74
  Implied bound: 13
  MIR: 147
  Flow cover: 336
  RLT: 67
  Relax-and-lift: 33

Explored 17391 nodes (348686 simplex iterations) in 7.95 seconds (3.83 work units)
Thread count was 18 (of 36 available processors)

Solution count 10: 238 239 240 ... 250

Optimal solution found (tolerance 1.00e-04)
Best objective 2.380000000000e+02, best bound 2.380000000000e+02, gap 0.0000%

Gurobi 11.0.0 (win64) logging started Fri Apr 26 12:40:21 2024

Set parameter LogFile to value "./Results/StripPacking_CutsTest_SBM/Logs/SBM-StripPacking-18.log"
Set parameter TimeLimit to value 3600
Set parameter Cuts to value 0
Set parameter Presolve to value 1
Set parameter Heuristics to value 0
Gurobi Optimizer version 11.0.0 build v11.0.0rc2 (win64 - Windows 10.0 (19045.2))

CPU model: Intel(R) Core(TM) i9-10980XE CPU @ 3.00GHz, instruction set [SSE2|AVX|AVX2|AVX512]
Thread count: 18 physical cores, 36 logical processors, using up to 18 threads

Optimize a model with 2772 rows, 496 columns and 8298 nonzeros
Model fingerprint: 0x1e4e3848
Variable types: 190 continuous, 306 integer (306 binary)
Coefficient statistics:
  Matrix range     [1e+00, 3e+02]
  Objective range  [1e+00, 1e+00]
  Bounds range     [1e+00, 3e+02]
  RHS range        [1e+00, 3e+02]
Presolve removed 478 rows and 2 columns
Presolve time: 0.02s
Presolved: 2294 rows, 494 columns, 7252 nonzeros
Variable types: 187 continuous, 307 integer (307 binary)

Root relaxation: objective 2.000000e+02, 275 iterations, 0.00 seconds (0.01 work units)

    Nodes    |    Current Node    |     Objective Bounds      |     Work
 Expl Unexpl |  Obj  Depth IntInf | Incumbent    BestBd   Gap | It/Node Time

     0     0  200.00000    0   21          -  200.00000      -     -    0s
     0     0  200.00000    0   11          -  200.00000      -     -    0s
     0     2  200.00000    0   11          -  200.00000      -     -    0s
* 1742  1210              89     273.0000000  200.00000  26.7%  20.3    0s
* 4350  2386              49     271.0000000  200.00000  26.2%  17.6    0s
* 4456  2266              75     268.0000000  200.00000  25.4%  17.4    0s
* 4897  2146              64     266.0000000  200.00000  24.8%  17.2    0s
* 4923  2036              72     264.0000000  200.00000  24.2%  17.2    0s
* 5170  1831              76     258.0000000  200.00000  22.5%  17.2    0s
* 6035  1524              87     254.0000000  200.00000  21.3%  17.7    0s
* 6288  1296              79     251.0000000  200.00000  20.3%  17.8    0s
* 6945  1085              50     249.0000000  200.00000  19.7%  17.6    1s
* 8713  1142              67     248.0000000  212.00000  14.5%  17.9    1s
* 8952  1028              83     247.0000000  212.00000  14.2%  18.0    1s
* 9392  1115              90     247.0000000  212.00000  14.2%  18.1    1s
* 9694  1109              74     246.0000000  212.00000  13.8%  18.2    1s
* 9803  1028              86     244.0000000  212.00000  13.1%  18.1    1s
*11060  1203              87     240.0000000  223.00000  7.08%  18.4    1s
*12730   981              76     239.0000000  226.00000  5.44%  19.2    1s
*13703  1103              68     238.0000000  238.00000  0.00%  19.3    1s

Explored 14260 nodes (271079 simplex iterations) in 1.67 seconds (2.00 work units)
Thread count was 18 (of 36 available processors)

Solution count 10: 238 239 240 ... 251

Optimal solution found (tolerance 1.00e-04)
Best objective 2.380000000000e+02, best bound 2.380000000000e+02, gap 0.0000%

Gurobi 11.0.0 (win64) logging started Fri Apr 26 12:40:23 2024

Set parameter LogFile to value "./Results/StripPacking_CutsTest_SBM/Logs/SBM-StripPacking-18.log"
Set parameter TimeLimit to value 3600
Set parameter Cuts to value 0
Set parameter Presolve to value 0
Set parameter Heuristics to value 1
Gurobi Optimizer version 11.0.0 build v11.0.0rc2 (win64 - Windows 10.0 (19045.2))

CPU model: Intel(R) Core(TM) i9-10980XE CPU @ 3.00GHz, instruction set [SSE2|AVX|AVX2|AVX512]
Thread count: 18 physical cores, 36 logical processors, using up to 18 threads

Optimize a model with 2772 rows, 496 columns and 8298 nonzeros
Model fingerprint: 0x1e4e3848
Variable types: 190 continuous, 306 integer (306 binary)
Coefficient statistics:
  Matrix range     [1e+00, 3e+02]
  Objective range  [1e+00, 1e+00]
  Bounds range     [1e+00, 3e+02]
  RHS range        [1e+00, 3e+02]
Variable types: 190 continuous, 306 integer (306 binary)

Root relaxation: objective 1.530000e+02, 303 iterations, 0.00 seconds (0.01 work units)

    Nodes    |    Current Node    |     Objective Bounds      |     Work
 Expl Unexpl |  Obj  Depth IntInf | Incumbent    BestBd   Gap | It/Node Time

     0     0  153.00000    0   23          -  153.00000      -     -    0s
     0     0  200.00000    0   20          -  200.00000      -     -    0s
     0     0  200.00000    0    9          -  200.00000      -     -    0s
     0     2  200.00000    0    9          -  200.00000      -     -    0s
* 1822  1200              75     278.0000000  200.00000  28.1%  20.8    0s
H 1920  1027                     265.0000000  200.00000  24.5%  20.4    0s
H 1927  1027                     264.0000000  200.00000  24.2%  20.4    0s
H 2317  1063                     260.0000000  200.00000  23.1%  19.6    0s
H 2495  1195                     258.0000000  200.00000  22.5%  19.2    0s
H 2536  1171                     257.0000000  200.00000  22.2%  19.0    0s
H 3401  1369                     254.0000000  200.00000  21.3%  20.3    2s
H 3468  1316                     251.0000000  200.00000  20.3%  20.4    3s
H 3660  1292                     248.0000000  200.00000  19.4%  20.6    4s
H 3782  1194                     246.0000000  212.00000  13.8%  20.7    4s
  3908  1169 infeasible   38       246.00000  212.00000  13.8%  20.7    5s
H 3920  1110                     244.0000000  212.00000  13.1%  20.7    5s
H 3931  1054                     242.0000000  212.00000  12.4%  20.7    5s
H 4052   948                     239.0000000  212.00000  11.3%  20.8    6s
H 4060   897                     238.0000000  212.00000  10.9%  20.8    6s

Explored 4281 nodes (86972 simplex iterations) in 6.29 seconds (5.07 work units)
Thread count was 18 (of 36 available processors)

Solution count 10: 238 239 242 ... 258

Optimal solution found (tolerance 1.00e-04)
Best objective 2.380000000000e+02, best bound 2.380000000000e+02, gap 0.0000%

Gurobi 11.0.0 (win64) logging started Fri Apr 26 12:40:29 2024

Set parameter LogFile to value "./Results/StripPacking_CutsTest_SBM/Logs/SBM-StripPacking-18.log"
Set parameter TimeLimit to value 3600
Set parameter Cuts to value 1
Set parameter Presolve to value 1
Set parameter Heuristics to value 0
Gurobi Optimizer version 11.0.0 build v11.0.0rc2 (win64 - Windows 10.0 (19045.2))

CPU model: Intel(R) Core(TM) i9-10980XE CPU @ 3.00GHz, instruction set [SSE2|AVX|AVX2|AVX512]
Thread count: 18 physical cores, 36 logical processors, using up to 18 threads

Optimize a model with 2772 rows, 496 columns and 8298 nonzeros
Model fingerprint: 0x1e4e3848
Variable types: 190 continuous, 306 integer (306 binary)
Coefficient statistics:
  Matrix range     [1e+00, 3e+02]
  Objective range  [1e+00, 1e+00]
  Bounds range     [1e+00, 3e+02]
  RHS range        [1e+00, 3e+02]
Presolve removed 478 rows and 2 columns
Presolve time: 0.01s
Presolved: 2294 rows, 494 columns, 7252 nonzeros
Variable types: 187 continuous, 307 integer (307 binary)

Root relaxation: objective 2.000000e+02, 275 iterations, 0.00 seconds (0.01 work units)

    Nodes    |    Current Node    |     Objective Bounds      |     Work
 Expl Unexpl |  Obj  Depth IntInf | Incumbent    BestBd   Gap | It/Node Time

     0     0  200.00000    0   21          -  200.00000      -     -    0s
     0     0  200.00000    0   39          -  200.00000      -     -    0s
     0     0  200.00000    0   39          -  200.00000      -     -    0s
     0     0  200.00000    0   35          -  200.00000      -     -    0s
     0     0  200.00000    0   29          -  200.00000      -     -    0s
H    0     0                     280.0000000  200.00000  28.6%     -    0s
     0     0  200.00000    0   15  280.00000  200.00000  28.6%     -    0s
     0     0  200.00000    0   15  280.00000  200.00000  28.6%     -    0s
     0     0  200.00000    0   18  280.00000  200.00000  28.6%     -    0s
     0     0  200.00000    0   17  280.00000  200.00000  28.6%     -    0s
     0     0  200.00000    0   16  280.00000  200.00000  28.6%     -    0s
     0     0  200.00000    0   20  280.00000  200.00000  28.6%     -    0s
     0     0  200.00000    0   19  280.00000  200.00000  28.6%     -    0s
     0     0  200.00000    0   19  280.00000  200.00000  28.6%     -    0s
     0     2  200.00000    0   16  280.00000  200.00000  28.6%     -    0s
* 1545  1191              81     279.0000000  200.00000  28.3%  17.6    0s
* 2749  1714              67     275.0000000  200.00000  27.3%  17.0    0s
H 3411  1735                     273.0000000  200.00000  26.7%  17.0    1s
H 3414  1650                     264.0000000  200.00000  24.2%  17.0    1s
* 4372  2003              62     263.0000000  200.00000  24.0%  22.3    1s
* 4934  2122              67     262.0000000  200.00000  23.7%  21.7    2s
* 5220  1916              72     258.0000000  200.00000  22.5%  21.4    2s
* 5450  1725              56     257.0000000  200.00000  22.2%  21.6    2s
* 5586  1517              87     254.0000000  200.00000  21.3%  21.8    2s
* 6250  1286              71     250.0000000  200.00000  20.0%  23.0    2s
* 7950  1030              68     249.0000000  212.00000  14.9%  22.2    2s
*10030  1120              74     248.0000000  222.00000  10.5%  21.8    3s
*10207   929              72     247.0000000  226.00000  8.50%  21.7    3s
*11741   981              67     245.0000000  232.00000  5.31%  22.1    3s
*12258  1005              60     244.0000000  238.00000  2.46%  22.0    3s
*12587  1013              60     242.0000000  238.00000  1.65%  21.9    4s
*13571   980              55     239.0000000  238.00000  0.42%  21.7    4s
 15731   994     cutoff   22       239.00000  238.00000  0.42%  21.4    5s
*27937  1082              48     238.0000000  238.00000  0.00%  20.1    9s

Cutting planes:
  Learned: 11
  Gomory: 7
  Cover: 80
  Implied bound: 1
  Clique: 1
  MIR: 143
  StrongCG: 1
  Flow cover: 305
  RLT: 23
  Relax-and-lift: 12

Explored 29830 nodes (585302 simplex iterations) in 9.70 seconds (4.66 work units)
Thread count was 18 (of 36 available processors)

Solution count 10: 238 239 242 ... 254

Optimal solution found (tolerance 1.00e-04)
Best objective 2.380000000000e+02, best bound 2.380000000000e+02, gap 0.0000%

Gurobi 11.0.0 (win64) logging started Fri Apr 26 12:40:39 2024

Set parameter LogFile to value "./Results/StripPacking_CutsTest_SBM/Logs/SBM-StripPacking-18.log"
Set parameter TimeLimit to value 3600
Set parameter Cuts to value 1
Set parameter Presolve to value 0
Set parameter Heuristics to value 1
Gurobi Optimizer version 11.0.0 build v11.0.0rc2 (win64 - Windows 10.0 (19045.2))

CPU model: Intel(R) Core(TM) i9-10980XE CPU @ 3.00GHz, instruction set [SSE2|AVX|AVX2|AVX512]
Thread count: 18 physical cores, 36 logical processors, using up to 18 threads

Optimize a model with 2772 rows, 496 columns and 8298 nonzeros
Model fingerprint: 0x1e4e3848
Variable types: 190 continuous, 306 integer (306 binary)
Coefficient statistics:
  Matrix range     [1e+00, 3e+02]
  Objective range  [1e+00, 1e+00]
  Bounds range     [1e+00, 3e+02]
  RHS range        [1e+00, 3e+02]
Variable types: 190 continuous, 306 integer (306 binary)

Root relaxation: objective 1.530000e+02, 303 iterations, 0.02 seconds (0.01 work units)

    Nodes    |    Current Node    |     Objective Bounds      |     Work
 Expl Unexpl |  Obj  Depth IntInf | Incumbent    BestBd   Gap | It/Node Time

     0     0  153.00000    0   23          -  153.00000      -     -    0s
     0     0  200.00000    0   20          -  200.00000      -     -    0s
     0     0  200.00000    0   40          -  200.00000      -     -    0s
     0     0  200.00000    0   38          -  200.00000      -     -    0s
     0     0  200.00000    0   16          -  200.00000      -     -    0s
     0     0  200.00000    0   18          -  200.00000      -     -    0s
     0     0  200.00000    0   17          -  200.00000      -     -    0s
     0     0  200.00000    0   18          -  200.00000      -     -    0s
     0     0  200.00000    0   17          -  200.00000      -     -    0s
     0     0  200.00000    0   21          -  200.00000      -     -    0s
H    0     0                     280.0000000  200.00000  28.6%     -    0s
H    0     0                     273.0000000  200.00000  26.7%     -    0s
     0     0  200.00000    0   20  273.00000  200.00000  26.7%     -    0s
     0     0  200.00000    0   20  273.00000  200.00000  26.7%     -    0s
H    0     0                     267.0000000  200.00000  25.1%     -    0s
     0     0  200.00000    0   16  267.00000  200.00000  25.1%     -    0s
     0     0  200.00000    0   12  267.00000  200.00000  25.1%     -    0s
H    0     0                     263.0000000  200.00000  24.0%     -    0s
     0     2  200.00000    0   11  263.00000  200.00000  24.0%     -    0s
H   35    50                     261.0000000  200.00000  23.4%  29.6    0s
H  115   135                     259.0000000  200.00000  22.8%  29.7    0s
H  136   156                     257.0000000  200.00000  22.2%  32.5    0s
H  255   260                     257.0000000  200.00000  22.2%  33.6    1s
H  527   451                     254.0000000  200.00000  21.3%  30.4    2s
H  538   451                     247.0000000  200.00000  19.0%  31.4    2s
   944   649  238.00000   21   27  247.00000  200.00000  19.0%  28.0    5s
H  952   649                     247.0000000  200.00000  19.0%  28.0    5s
H  957   649                     244.0000000  200.00000  18.0%  28.0    5s
H 1042   779                     244.0000000  200.00000  18.0%  27.9    5s
H 1827  1017                     240.0000000  200.00000  16.7%  25.4    8s
H 2080  1106                     239.0000000  200.00000  16.3%  25.1    9s
H 2690  1176                     239.0000000  200.00000  16.3%  24.8   10s
H 2973  1053                     238.0000000  200.00000  16.0%  25.0   10s
H 3090  1041                     238.0000000  200.00000  16.0%  25.3   11s
  4531  1169  215.00000   10   36  238.00000  200.00000  16.0%  25.9   16s
  6068  1352  200.00000   14   42  238.00000  200.00000  16.0%  25.9   20s

Cutting planes:
  Learned: 4
  Cover: 61
  Implied bound: 4
  MIR: 53
  StrongCG: 1
  Flow cover: 161
  RLT: 35
  Relax-and-lift: 4
  BQP: 1

Explored 7711 nodes (215701 simplex iterations) in 24.43 seconds (20.90 work units)
Thread count was 18 (of 36 available processors)

Solution count 10: 238 238 239 ... 254

Optimal solution found (tolerance 1.00e-04)
Best objective 2.379999999761e+02, best bound 2.379999999761e+02, gap 0.0000%

Gurobi 11.0.0 (win64) logging started Fri Apr 26 12:41:04 2024

Set parameter LogFile to value "./Results/StripPacking_CutsTest_SBM/Logs/SBM-StripPacking-18.log"
Set parameter TimeLimit to value 3600
Set parameter Cuts to value 0
Set parameter Presolve to value 1
Set parameter Heuristics to value 1
Gurobi Optimizer version 11.0.0 build v11.0.0rc2 (win64 - Windows 10.0 (19045.2))

CPU model: Intel(R) Core(TM) i9-10980XE CPU @ 3.00GHz, instruction set [SSE2|AVX|AVX2|AVX512]
Thread count: 18 physical cores, 36 logical processors, using up to 18 threads

Optimize a model with 2772 rows, 496 columns and 8298 nonzeros
Model fingerprint: 0x1e4e3848
Variable types: 190 continuous, 306 integer (306 binary)
Coefficient statistics:
  Matrix range     [1e+00, 3e+02]
  Objective range  [1e+00, 1e+00]
  Bounds range     [1e+00, 3e+02]
  RHS range        [1e+00, 3e+02]
Presolve removed 478 rows and 2 columns
Presolve time: 0.02s
Presolved: 2294 rows, 494 columns, 7252 nonzeros
Variable types: 187 continuous, 307 integer (307 binary)

Root relaxation: objective 2.000000e+02, 275 iterations, 0.00 seconds (0.01 work units)

    Nodes    |    Current Node    |     Objective Bounds      |     Work
 Expl Unexpl |  Obj  Depth IntInf | Incumbent    BestBd   Gap | It/Node Time

     0     0  200.00000    0   21          -  200.00000      -     -    0s
     0     0  200.00000    0   21          -  200.00000      -     -    0s
H    0     0                     280.0000000  200.00000  28.6%     -    0s
     0     2  200.00000    0   16  280.00000  200.00000  28.6%     -    0s
H  111   108                     279.0000000  200.00000  28.3%  14.6    0s
H  303   326                     278.0000000  200.00000  28.1%  15.1    0s
H  436   737                     268.0000000  200.00000  25.4%  13.6    0s
H  895   744                     265.0000000  200.00000  24.5%  12.7    1s
H  896   744                     262.0000000  200.00000  23.7%  12.7    1s
H  896   744                     257.0000000  200.00000  22.2%  12.7    1s
H 1684  1226                     250.0000000  200.00000  20.0%  11.2    2s
H 1786  1216                     248.0000000  200.00000  19.4%  11.1    2s
H 2031  1197                     244.0000000  200.00000  18.0%  11.1    2s
H 2107  1197                     243.0000000  200.00000  17.7%  11.0    2s
H 3317  1972                     242.0000000  200.00000  17.4%  10.3    3s
H 3530  1937                     242.0000000  200.00000  17.4%  10.5    3s
H 3909  1870                     238.0000000  200.00000  16.0%  13.4    5s

Explored 4079 nodes (54408 simplex iterations) in 5.55 seconds (4.75 work units)
Thread count was 18 (of 36 available processors)

Solution count 10: 238 242 242 ... 265

Optimal solution found (tolerance 1.00e-04)
Best objective 2.380000000000e+02, best bound 2.380000000000e+02, gap 0.0000%

Gurobi 11.0.0 (win64) logging started Fri Apr 26 12:41:09 2024

Set parameter LogFile to value "./Results/StripPacking_CutsTest_SBM/Logs/SBM-StripPacking-18.log"
Set parameter TimeLimit to value 3600
Set parameter Cuts to value 0
Set parameter Presolve to value 0
Set parameter Heuristics to value 0
Gurobi Optimizer version 11.0.0 build v11.0.0rc2 (win64 - Windows 10.0 (19045.2))

CPU model: Intel(R) Core(TM) i9-10980XE CPU @ 3.00GHz, instruction set [SSE2|AVX|AVX2|AVX512]
Thread count: 18 physical cores, 36 logical processors, using up to 18 threads

Optimize a model with 2772 rows, 496 columns and 8298 nonzeros
Model fingerprint: 0x1e4e3848
Variable types: 190 continuous, 306 integer (306 binary)
Coefficient statistics:
  Matrix range     [1e+00, 3e+02]
  Objective range  [1e+00, 1e+00]
  Bounds range     [1e+00, 3e+02]
  RHS range        [1e+00, 3e+02]
Variable types: 190 continuous, 306 integer (306 binary)

Root relaxation: objective 1.530000e+02, 303 iterations, 0.00 seconds (0.01 work units)

    Nodes    |    Current Node    |     Objective Bounds      |     Work
 Expl Unexpl |  Obj  Depth IntInf | Incumbent    BestBd   Gap | It/Node Time

     0     0  153.00000    0   23          -  153.00000      -     -    0s
     0     0  200.00000    0   20          -  200.00000      -     -    0s
     0     0  200.00000    0   12          -  200.00000      -     -    0s
     0     2  200.00000    0    9          -  200.00000      -     -    0s
* 1362  1058              53     280.0000000  200.00000  28.6%  16.3    0s
* 3033  1672              76     278.0000000  200.00000  28.1%  12.0    0s
* 4072  1935              48     277.0000000  200.00000  27.8%  16.4    0s
* 4358  1986              61     273.0000000  200.00000  26.7%  16.7    1s
* 5125  2059              76     270.0000000  200.00000  25.9%  16.5    1s
* 5132  1963              69     260.0000000  200.00000  23.1%  16.5    1s
* 5346  1646              79     259.0000000  200.00000  22.8%  17.1    1s
* 6622  1199              52     258.0000000  200.00000  22.5%  17.7    1s
* 7338  1072              63     257.0000000  200.00000  22.2%  18.4    1s
* 7636   965              72     256.0000000  200.00000  21.9%  18.6    1s
* 8599  1053              64     254.0000000  210.00000  17.3%  19.1    1s
* 9626  1070              62     253.0000000  210.00000  17.0%  19.7    2s
*10363  1046              70     250.0000000  223.00000  10.8%  19.9    2s
*11786  1009              59     248.0000000  223.00000  10.1%  20.5    2s
*12682  1069              61     245.0000000  238.00000  2.86%  20.9    2s
*14902  1170              63     244.0000000  238.00000  2.46%  21.7    3s
*16740  1116              73     241.0000000  238.00000  1.24%  21.8    3s
*17791   970              55     239.0000000  238.00000  0.42%  21.7    4s
*17795   970              58     238.0000000  238.00000  0.00%  21.7    4s

Explored 18256 nodes (399614 simplex iterations) in 4.16 seconds (2.78 work units)
Thread count was 18 (of 36 available processors)

Solution count 10: 238 239 241 ... 256

Optimal solution found (tolerance 1.00e-04)
Best objective 2.380000000000e+02, best bound 2.380000000000e+02, gap 0.0000%
